Bruniera/ragionamento automatico/progetto/benchmark/asp/mid17.lp
start(0).
limit(6).
n(14).
strada(0,4,11).
strada(0,10,15).
strada(0,11,15).
strada(0,13,13).
strada(1,0,0).
strada(1,2,2).
strada(1,6,1).
strada(1,8,5).
strada(1,10,18).
strada(1,11,6).
strada(1,12,18).
strada(1,13,12).
strada(2,0,7).
strada(2,1,6).
strada(2,3,16).
strada(2,4,10).
strada(2,5,14).
strada(2,6,13).
strada(2,7,7).
strada(2,8,0).
strada(2,9,2).
strada(2,12,8).
strada(3,2,12).
strada(3,4,14).
strada(3,6,16).
strada(3,10,14).
strada(3,12,20).
strada(4,0,12).
strada(4,3,8).
strada(4,5,20).
strada(4,7,11).
strada(4,8,0).
strada(5,0,6).
strada(5,3,15).
strada(5,6,7).
strada(5,7,6).
strada(5,9,15).
strada(5,10,7).
strada(5,13,19).
strada(6,1,19).
strada(6,2,19).
strada(6,3,9).
strada(6,4,15).
strada(6,11,20).
strada(6,12,16).
strada(6,13,2).
strada(7,1,19).
strada(7,3,13).
strada(7,5,20).
strada(7,6,1).
strada(7,11,7).
strada(7,13,7).
strada(8,2,2).
strada(8,4,20).
strada(8,6,0).
strada(8,7,20).
strada(8,10,16).
strada(8,11,0).
strada(8,13,8).
strada(9,0,16).
strada(9,1,11).
strada(9,3,2).
strada(9,5,2).
strada(9,7,3).
strada(9,8,15).
strada(9,10,2).
strada(9,12,17).
strada(10,0,17).
strada(10,1,3).
strada(10,2,20).
strada(10,3,18).
strada(10,4,0).
strada(10,5,19).
strada(10,7,10).
strada(10,8,17).
strada(10,9,14).
strada(10,11,17).
strada(11,1,0).
strada(11,3,12).
strada(11,5,11).
strada(11,9,20).
strada(11,10,17).
strada(11,13,2).
strada(12,0,18).
strada(12,1,16).
strada(12,2,9).
strada(12,3,7).
strada(12,4,11).
strada(12,7,5).
strada(12,8,15).
strada(12,9,12).
strada(12,11,0).
strada(12,13,7).
strada(13,0,15).
strada(13,1,4).
strada(13,2,1).
strada(13,3,3).
strada(13,4,2).
strada(13,5,13).
strada(13,6,5).
strada(13,7,6).
strada(13,10,2).
strada(13,11,16).
