Bruniera/ragionamento automatico/progetto/benchmark/minizinc/mid17.dzn
start = 1;
limit = 6;
n = 14;
m=[|-1,-1,-1,-1,11,-1,-1,-1,-1,-1,15,15,-1,13,
|0,-1,2,-1,-1,-1,1,-1,5,-1,18,6,18,12,
|7,6,-1,16,10,14,13,7,0,2,-1,-1,8,-1,
|-1,-1,12,-1,14,-1,16,-1,-1,-1,14,-1,20,-1,
|12,-1,-1,8,-1,20,-1,11,0,-1,-1,-1,-1,-1,
|6,-1,-1,15,-1,-1,7,6,-1,15,7,-1,-1,19,
|-1,19,19,9,15,-1,-1,-1,-1,-1,-1,20,16,2,
|-1,19,-1,13,-1,20,1,-1,-1,-1,-1,7,-1,7,
|-1,-1,2,-1,20,-1,0,20,-1,-1,16,0,-1,8,
|16,11,-1,2,-1,2,-1,3,15,-1,2,-1,17,-1,
|17,3,20,18,0,19,-1,10,17,14,-1,17,-1,-1,
|-1,0,-1,12,-1,11,-1,-1,-1,20,17,-1,-1,2,
|18,16,9,7,11,-1,-1,5,15,12,-1,0,-1,7,
|15,4,1,3,2,13,5,6,-1,-1,2,16,-1,-1,
|]
;